Minimize
  - 10 Pair_0_0_0 - 10 Pair_0_0_1 - 10 Pair_1_1_0 - 10 Pair_1_1_1
Subject To
 C1_0: P_0_0 + P_0_1 = 1
 C3_0: N_0_0 + N_0_1 = 1
 C1_1: P_1_0 + P_1_1 = 1
 C3_1: N_1_0 + N_1_1 = 1
 C2_0: P_0_0 + P_1_0 = 1
 C4_0: N_0_0 + N_1_0 = 1
 C2_1: P_0_1 + P_1_1 = 1
 C4_1: N_0_1 + N_1_1 = 1
 D1_0_0: - P_0_0 - N_0_0 + Pair_0_0_0 >= -1
 D2_0_0: - P_0_0 + Pair_0_0_0 <= 0
 D3_0_0: - N_0_0 + Pair_0_0_0 <= 0
 D1_0_0: - P_0_1 - N_0_1 + Pair_0_0_1 >= -1
 D2_0_0: - P_0_1 + Pair_0_0_1 <= 0
 D3_0_0: - N_0_1 + Pair_0_0_1 <= 0
 D1_1_1: - P_1_0 - N_1_0 + Pair_1_1_0 >= -1
 D2_1_1: - P_1_0 + Pair_1_1_0 <= 0
 D3_1_1: - N_1_0 + Pair_1_1_0 <= 0
 D1_1_1: - P_1_1 - N_1_1 + Pair_1_1_1 >= -1
 D2_1_1: - P_1_1 + Pair_1_1_1 <= 0
 D3_1_1: - N_1_1 + Pair_1_1_1 <= 0
Bounds
Binaries
 P_0_0 N_0_0 P_0_1 N_0_1 P_1_0 N_1_0 P_1_1 N_1_1 Pair_0_0_0 Pair_0_0_1
 Pair_1_1_0 Pair_1_1_1
End
